n = 11;
k = 3;
maxsize = 11;
nML = 2;
nCL = 2;
deg = [1, 4, 2, 4, 1, 2, 1, 2, 3, 4, 4];
ML = array2d(1..2, 1..2, [4, 7, 3, 1]);
CL = array2d(1..2, 1..2, [5, 6, 9, 2]);
A = array2d(1..11, 1..11, [ 0, 0, 0, 0, 0, 0, 0, 0, 0, 0, 1, 0, 0, 0, 1, 0, 0, 0, 1, 1, 0, 1, 0, 0, 0, 0, 0, 0, 0, 0, 0, 1, 1, 0, 1, 0, 0, 0, 1, 0, 1, 0, 1, 0, 0, 0, 0, 0, 0, 0, 0, 0, 0, 1, 0, 0, 0, 0, 1, 0, 0, 0, 0, 1, 0, 0, 0, 0, 0, 0, 0, 0, 0, 0, 0, 0, 1, 0, 1, 0, 1, 0, 0, 0, 0, 0, 0, 0, 0, 1, 0, 0, 0, 1, 0, 0, 0, 1, 0, 0, 0, 1, 1, 1, 0, 0, 0, 1, 0, 0, 1, 1, 1, 0, 0, 0, 1, 0, 0, 0, 0 ]);
W = array2d(1..11, 1..11, [ -2, -10, -8, 8, 5, 3, 1, -3, -4, 10, 4, 7, -1, -7, -1, -6, -5, -9, 7, -2, 9, 5, -10, -7, -8, 6, -9, -8, -9, 2, -4, -4, -1, 4, -8, 5, 4, 9, 8, -6, -3, 6, 9, -6, 5, -1, 5, -5, -8, -4, 2, -1, -10, -1, 1, -8, -4, 5, 8, -1, -10, 8, 6, -6, 3, -5, -7, 9, -8, -6, -9, -10, -3, 6, 3, -2, -6, 0, -1, -6, 9, -3, -2, -8, 8, -3, 8, -9, -1, 8, 5, -7, 10, -1, -5, 5, -8, -9, 5, -6, 10, -9, 2, -6, -10, -3, -9, 4, -5, 9, -10, 10, -1, 5, 4, -9, -10, 10, 0, 6, -9 ]);